WARNING: for repeatability, setting FPU to use double precision
============================[ Problem Statistics ]=============================
|                                                                             |
|  Number of variables:           100                                         |
|  Number of clauses:             449                                         |
|  Parse time:                   0.00 s                                       |
|  Eliminated clauses:           0.00 Mb                                      |
|  Simplification time:          0.00 s                                       |
|                                                                             |
============================[ Search Statistics ]==============================
| Conflicts |          ORIGINAL         |          LEARNT          | Progress |
|           |    Vars  Clauses Literals |    Limit  Clauses Lit/Cl |          |
===============================================================================
|       100 |      99      448     1350 |      164      100      7 |  0.010 % |
===============================================================================
restarts              : 2
conflicts             : 189            (73944 /sec)
decisions             : 246            (0.00 % random) (96244 /sec)
propagations          : 4757           (1861111 /sec)
conflict literals     : 1207           (19.21 % deleted)
Memory used           : 13.00 MB
CPU time              : 0.002556 s

SATISFIABLE
